NAME: line_90_8
TYPE: TSP
COMMENT: line_90_8
DIMENSION: 90
EDGE_WEIGHT_TYPE: EUC_2D
NODE_COORD_SECTION
1 0.0 368.0
2 0.0 610.0
3 0.0 856.0
4 0.0 874.0
5 0.0 197.0
6 0.0 386.0
7 0.0 858.0
8 0.0 107.0
9 0.0 700.0
10 0.0 350.0
11 0.0 791.0
12 0.0 153.0
13 0.0 625.0
14 0.0 738.0
15 0.0 25.0
16 0.0 279.0
17 0.0 853.0
18 0.0 814.0
19 0.0 400.0
20 0.0 720.0
21 0.0 292.0
22 0.0 124.0
23 0.0 847.0
24 0.0 357.0
25 0.0 244.0
26 0.0 531.0
27 0.0 226.0
28 0.0 86.0
29 0.0 814.0
30 0.0 510.0
31 0.0 541.0
32 0.0 392.0
33 0.0 859.0
34 0.0 290.0
35 0.0 675.0
36 0.0 393.0
37 0.0 489.0
38 0.0 37.0
39 0.0 7.0
40 0.0 370.0
41 0.0 404.0
42 0.0 804.0
43 0.0 357.0
44 0.0 427.0
45 0.0 287.0
46 0.0 549.0
47 0.0 684.0
48 0.0 16.0
49 0.0 22.0
50 0.0 737.0
51 0.0 890.0
52 0.0 426.0
53 0.0 850.0
54 0.0 633.0
55 0.0 633.0
56 0.0 341.0
57 0.0 495.0
58 0.0 730.0
59 0.0 128.0
60 0.0 392.0
61 0.0 896.0
62 0.0 255.0
63 0.0 844.0
64 0.0 185.0
65 0.0 418.0
66 0.0 269.0
67 0.0 806.0
68 0.0 811.0
69 0.0 522.0
70 0.0 308.0
71 0.0 457.0
72 0.0 158.0
73 0.0 691.0
74 0.0 843.0
75 0.0 199.0
76 0.0 791.0
77 0.0 26.0
78 0.0 602.0
79 0.0 688.0
80 0.0 279.0
81 0.0 202.0
82 0.0 64.0
83 0.0 347.0
84 0.0 92.0
85 0.0 231.0
86 0.0 96.0
87 0.0 858.0
88 0.0 287.0
89 0.0 777.0
90 0.0 26.0
